UBC_100_2.txt

VEHICLE     CAPACITY  LOCATIONS  CUSTOMER  OPTIONS  PRIORITIES  NUMTYPS
10		400		105		100		200		3		4

CUSTOMER  DEMAND
0	 19
1	 18
2	 17
3	 18
4	 17
5	 11
6	 15
7	 15
8	 20
9	 11
10	 10
11	 12
12	 19
13	 17
14	 15
15	 10
16	 10
17	 12
18	 11
19	 12
20	 11
21	 19
22	 10
23	 14
24	 16
25	 18
26	 16
27	 15
28	 13
29	 11
30	 20
31	 15
32	 16
33	 20
34	 16
35	 13
36	 11
37	 14
38	 17
39	 20
40	 15
41	 10
42	 12
43	 16
44	 17
45	 13
46	 14
47	 14
48	 12
49	 11
50	 10
51	 12
52	 14
53	 10
54	 20
55	 14
56	 12
57	 17
58	 11
59	 14
60	 20
61	 11
62	 18
63	 20
64	 16
65	 20
66	 10
67	 12
68	 10
69	 12
70	 17
71	 17
72	 10
73	 20
74	 12
75	 19
76	 15
77	 20
78	 14
79	 12
80	 15
81	 19
82	 13
83	 20
84	 12
85	 19
86	 18
87	 16
88	 13
89	 17
90	 13
91	 20
92	 14
93	 14
94	 12
95	 19
96	 10
97	 12
98	 14
99	 18

LOCATION  XCOORD  YCOORD  CAP  READY  DUE  TYP  SERVICETIME
0		21		39		-1		0		720	 0		0
1		48		50		-1		394		514		 2		6
2		47		23		-1		48		288		 2		6
3		33		33		-1		0		360		 2		6
4		25		5		-1		164		284		 2		6
5		16		37		-1		581		701		 2		6
6		39		42		-1		0		360		 2		6
7		24		15		-1		368		488		 2		6
8		20		5		-1		28		268		 2		6
9		7		16		-1		360		720		 2		6
10		45		28		-1		409		649		 2		6
11		11		11		-1		360		720		 2		6
12		44		29		-1		484		604		 2		6
13		6		11		-1		456		696		 2		6
14		5		1		-1		149		389		 2		6
15		45		36		-1		0		360		 2		6
16		33		20		-1		503		623		 2		6
17		5		30		-1		574		694		 2		6
18		10		40		-1		541		661		 2		6
19		29		46		-1		360		720		 2		6
20		16		40		-1		577		697		 2		6
21		47		27		-1		0		360		 2		6
22		38		2		-1		153		273		 2		6
23		34		25		-1		222		462		 2		6
24		26		21		-1		0		360		 2		6
25		5		41		-1		67		187		 2		6
26		16		37		-1		19		139		 2		6
27		44		43		-1		360		720		 2		6
28		30		45		-1		0		360		 2		6
29		47		1		-1		0		360		 2		6
30		10		42		-1		61		181		 2		6
31		39		13		-1		152		272		 2		6
32		40		1		-1		0		360		 2		6
33		17		8		-1		171		291		 2		6
34		44		46		-1		150		390		 2		6
35		30		5		-1		334		574		 2		6
36		27		37		-1		414		534		 2		6
37		25		14		-1		302		542		 2		6
38		2		35		-1		395		515		 2		6
39		9		13		-1		0		360		 2		6
40		20		47		-1		73		193		 2		6
41		50		8		-1		52		172		 2		6
42		9		16		-1		426		666		 2		6
43		34		38		-1		401		521		 2		6
44		38		8		-1		68		188		 2		6
45		6		30		-1		329		569		 2		6
46		13		44		-1		5		245		 2		6
47		17		1		-1		118		238		 2		6
48		36		30		-1		102		222		 2		6
49		46		17		-1		0		360		 2		6
50		27		39		-1		360		720		 2		6
51		29		48		-1		0		360		 2		6
52		35		43		-1		376		616		 2		6
53		42		48		-1		203		323		 2		6
54		13		16		-1		106		346		 2		6
55		29		10		-1		360		720		 2		6
56		12		36		-1		157		277		 2		6
57		28		15		-1		0		360		 2		6
58		37		18		-1		150		390		 2		6
59		41		19		-1		0		360		 2		6
60		17		49		-1		535		655		 2		6
61		19		18		-1		425		545		 2		6
62		41		39		-1		433		553		 2		6
63		25		3		-1		200		320		 2		6
64		6		10		-1		116		356		 2		6
65		11		49		-1		0		360		 2		6
66		15		31		-1		360		720		 2		6
67		48		7		-1		360		720		 2		6
68		22		9		-1		436		556		 2		6
69		5		25		-1		98		218		 2		6
70		9		27		-1		0		360		 2		6
71		23		3		-1		544		664		 2		6
72		23		30		-1		6		126		 2		6
73		7		48		-1		44		164		 2		6
74		13		48		-1		157		277		 2		6
75		33		33		-1		0		360		 2		6
76		19		48		-1		360		720		 2		6
77		38		24		-1		0		360		 2		6
78		36		29		-1		507		627		 2		6
79		24		38		-1		13		133		 2		6
80		2		12		-1		173		293		 2		6
81		14		9		-1		360		600		 2		6
82		15		45		-1		115		235		 2		6
83		36		47		-1		367		607		 2		6
84		39		22		-1		495		615		 2		6
85		4		31		-1		0		360		 2		6
86		1		36		-1		360		720		 2		6
87		21		44		-1		413		653		 2		6
88		9		11		-1		432		552		 2		6
89		3		24		-1		360		720		 2		6
90		36		41		-1		225		465		 2		6
91		48		13		-1		327		567		 2		6
92		44		49		-1		567		687		 2		6
93		9		10		-1		360		720		 2		6
94		48		12		-1		396		636		 2		6
95		25		37		-1		551		671		 2		6
96		38		12		-1		192		432		 2		6
97		21		13		-1		0		360		 2		6
98		40		13		-1		385		625		 2		6
99		4		29		-1		360		720		 2		6
100		19		24		-1		389		509		 2		6
101		9		41		14		0		720		 1		4
102		5		9		30		78		558		 1		4
103		41		37		19		0		720		 1		4
104		38		8		30		178		658		 1		4
OPTION  LOCATION  CUSTOMER  PRIO  SERVICETIME   COST
0		103		0		0		2		0
1		101		1		0		2		0
2		101		2		0		2		0
3		104		3		0		2		0
4		103		4		0		2		0
5		104		5		0		2		0
6		101		6		0		2		0
7		103		7		0		2		0
8		102		8		0		2		0
9		104		9		0		2		0
10		101		10		0		2		0
11		104		11		0		2		0
12		103		12		0		2		0
13		101		13		0		2		0
14		104		14		0		2		0
15		104		15		0		2		0
16		103		16		0		2		0
17		101		17		0		2		0
18		104		18		0		2		0
19		101		19		0		2		0
20		1		20		0		5		0
21		2		21		0		5		0
22		3		22		0		5		0
23		4		23		0		5		0
24		5		24		0		5		0
25		6		25		0		5		0
26		7		26		0		5		0
27		8		27		0		5		0
28		9		28		0		5		0
29		10		29		0		5		0
30		11		30		0		5		0
31		12		31		0		5		0
32		13		32		0		5		0
33		14		33		0		5		0
34		15		34		0		5		0
35		16		35		0		5		0
36		17		36		0		5		0
37		18		37		0		5		0
38		19		38		0		5		0
39		20		39		0		5		0
40		21		40		1		5		0
41		101		40		0		2		0
42		22		41		1		5		0
43		101		41		0		2		0
44		23		42		0		5		0
45		103		42		1		2		0
46		24		43		0		5		0
47		103		43		1		2		0
48		25		44		1		5		0
49		104		44		0		2		0
50		26		45		0		5		0
51		104		45		1		2		0
52		27		46		1		5		0
53		104		46		0		2		0
54		28		47		0		5		0
55		102		47		1		2		0
56		29		48		0		5		0
57		101		48		1		2		0
58		30		49		1		5		0
59		102		49		0		2		0
60		31		50		1		5		0
61		103		50		0		2		0
62		32		51		1		5		0
63		101		51		0		2		0
64		33		52		1		5		0
65		104		52		0		2		0
66		34		53		0		5		0
67		101		53		1		2		0
68		35		54		0		5		0
69		101		54		1		2		0
70		36		55		0		5		0
71		101		55		1		2		0
72		37		56		0		5		0
73		104		56		1		2		0
74		38		57		0		5		0
75		104		57		1		2		0
76		39		58		0		5		0
77		103		58		1		2		0
78		40		59		0		5		0
79		104		59		1		2		0
80		41		60		1		5		0
81		101		60		2		2		0
82		102		60		0		2		0
83		42		61		2		5		0
84		104		61		0		2		0
85		101		61		1		2		0
86		43		62		1		5		0
87		103		62		0		2		0
88		102		62		2		2		0
89		44		63		0		5		0
90		101		63		1		2		0
91		103		63		2		2		0
92		45		64		0		5		0
93		104		64		1		2		0
94		102		64		2		2		0
95		46		65		0		5		0
96		101		65		1		2		0
97		104		65		2		2		0
98		47		66		0		5		0
99		103		66		1		2		0
100		102		66		2		2		0
101		48		67		1		5		0
102		104		67		2		2		0
103		102		67		0		2		0
104		49		68		2		5		0
105		101		68		0		2		0
106		103		68		1		2		0
107		50		69		1		5		0
108		102		69		0		2		0
109		104		69		2		2		0
110		51		70		1		5		0
111		104		70		2		2		0
112		103		70		0		2		0
113		52		71		0		5		0
114		101		71		1		2		0
115		103		71		2		2		0
116		53		72		2		5		0
117		103		72		0		2		0
118		104		72		1		2		0
119		54		73		1		5		0
120		102		73		2		2		0
121		101		73		0		2		0
122		55		74		1		5		0
123		102		74		2		2		0
124		101		74		0		2		0
125		56		75		1		5		0
126		104		75		0		2		0
127		102		75		2		2		0
128		57		76		1		5		0
129		102		76		2		2		0
130		103		76		0		2		0
131		58		77		1		5		0
132		102		77		2		2		0
133		104		77		0		2		0
134		59		78		1		5		0
135		103		78		2		2		0
136		104		78		0		2		0
137		60		79		1		5		0
138		104		79		0		2		0
139		101		79		2		2		0
140		61		80		2		5		0
141		62		80		0		5		0
142		102		80		1		2		0
143		63		81		0		5		0
144		64		81		1		5		0
145		103		81		2		2		0
146		65		82		1		5		0
147		66		82		0		5		0
148		101		82		2		2		0
149		67		83		1		5		0
150		68		83		2		5		0
151		104		83		0		2		0
152		69		84		0		5		0
153		70		84		1		5		0
154		102		84		2		2		0
155		71		85		0		5		0
156		72		85		1		5		0
157		104		85		2		2		0
158		73		86		0		5		0
159		74		86		1		5		0
160		103		86		2		2		0
161		75		87		0		5		0
162		76		87		1		5		0
163		102		87		2		2		0
164		77		88		0		5		0
165		78		88		1		5		0
166		103		88		2		2		0
167		79		89		1		5		0
168		80		89		2		5		0
169		103		89		0		2		0
170		81		90		0		5		0
171		82		90		1		5		0
172		101		90		2		2		0
173		83		91		2		5		0
174		84		91		1		5		0
175		103		91		0		2		0
176		85		92		1		5		0
177		86		92		2		5		0
178		103		92		0		2		0
179		87		93		0		5		0
180		88		93		1		5		0
181		102		93		2		2		0
182		89		94		0		5		0
183		90		94		1		5		0
184		104		94		2		2		0
185		91		95		2		5		0
186		92		95		0		5		0
187		102		95		1		2		0
188		93		96		0		5		0
189		94		96		2		5		0
190		102		96		1		2		0
191		95		97		2		5		0
192		96		97		1		5		0
193		101		97		0		2		0
194		97		98		1		5		0
195		98		98		2		5		0
196		101		98		0		2		0
197		99		99		2		5		0
198		100		99		0		5		0
199		102		99		1		2		0
